(set-logic QF_S)
(set-option :strings-exp true)
(set-option :produce-models true)
(declare-fun sigmaStar_0 () String)
(declare-fun sigmaStar_1 () String)
(declare-fun sigmaStar_6 () String)
(declare-fun literal_18 () String)
(assert (= literal_18 "\x3c\x70\x3e\x77\x61\x72\x6e\x69\x6e\x67\x64\x65\x6c\x65\x74\x65\x72\x65\x73\x6f\x75\x72\x63\x65\x20\x3c\x61\x20\x68\x72\x65\x66\x3d\x27\x2f\x63\x6f\x75\x72\x73\x65\x2f\x6d\x6f\x64\x2e\x70\x68\x70\x3f\x75\x70\x64\x61\x74\x65\x3d\x26\x73\x65\x73\x73\x6b\x65\x79\x3d\x27\x3e\x75\x70\x64\x61\x74\x65\x3c\x2f\x61\x3e\x3c\x2f\x70\x3e"))
(assert (str.in.re literal_18 (re.++ (re.* re.allchar) (re.++ (str.to.re "\x5c\x3c\x53\x43\x52\x49\x50\x54") (re.* re.allchar)))))
(check-sat)
(get-model)
